p cnf 295 1179
-1 10 11 12 13 14 0
-10 -11 0
-10 -12 0
-10 -13 0
-10 -14 0
-11 -12 0
-11 -13 0
-11 -14 0
-12 -13 0
-12 -14 0
-13 -14 0
1 -10 0
1 -11 0
1 -12 0
1 -13 0
1 -14 0
-2 15 16 17 18 19 0
-15 -16 0
-15 -17 0
-15 -18 0
-15 -19 0
-16 -17 0
-16 -18 0
-16 -19 0
-17 -18 0
-17 -19 0
-18 -19 0
2 -15 0
2 -16 0
2 -17 0
2 -18 0
2 -19 0
-3 20 21 22 23 24 0
-20 -21 0
-20 -22 0
-20 -23 0
-20 -24 0
-21 -22 0
-21 -23 0
-21 -24 0
-22 -23 0
-22 -24 0
-23 -24 0
3 -20 0
3 -21 0
3 -22 0
3 -23 0
3 -24 0
-4 25 26 27 28 29 0
-25 -26 0
-25 -27 0
-25 -28 0
-25 -29 0
-26 -27 0
-26 -28 0
-26 -29 0
-27 -28 0
-27 -29 0
-28 -29 0
4 -25 0
4 -26 0
4 -27 0
4 -28 0
4 -29 0
-5 30 31 32 33 34 0
-30 -31 0
-30 -32 0
-30 -33 0
-30 -34 0
-31 -32 0
-31 -33 0
-31 -34 0
-32 -33 0
-32 -34 0
-33 -34 0
5 -30 0
5 -31 0
5 -32 0
5 -33 0
5 -34 0
-6 35 36 37 38 39 0
-35 -36 0
-35 -37 0
-35 -38 0
-35 -39 0
-36 -37 0
-36 -38 0
-36 -39 0
-37 -38 0
-37 -39 0
-38 -39 0
6 -35 0
6 -36 0
6 -37 0
6 -38 0
6 -39 0
-7 40 41 42 43 44 0
-40 -41 0
-40 -42 0
-40 -43 0
-40 -44 0
-41 -42 0
-41 -43 0
-41 -44 0
-42 -43 0
-42 -44 0
-43 -44 0
7 -40 0
7 -41 0
7 -42 0
7 -43 0
7 -44 0
-8 45 46 47 48 49 0
-45 -46 0
-45 -47 0
-45 -48 0
-45 -49 0
-46 -47 0
-46 -48 0
-46 -49 0
-47 -48 0
-47 -49 0
-48 -49 0
8 -45 0
8 -46 0
8 -47 0
8 -48 0
8 -49 0
-9 50 51 52 53 54 0
-50 -51 0
-50 -52 0
-50 -53 0
-50 -54 0
-51 -52 0
-51 -53 0
-51 -54 0
-52 -53 0
-52 -54 0
-53 -54 0
9 -50 0
9 -51 0
9 -52 0
9 -53 0
9 -54 0
1 2 3 0
1 4 7 0
-1 4 2 0
-2 5 3 1 4 0
-3 6 2 5 0
-4 7 1 5 2 0
-5 8 2 6 4 7 3 0
-6 9 3 5 8 0
-7 4 8 5 0
-8 5 9 7 6 0
-9 6 8 0
-1 1 0
-55 -1 1 0
-55 1 -1 0
55 1 1 0
55 -1 -1 0
-55 -2 4 0
-56 55 0
-56 -2 4 0
-56 2 -4 0
56 -55 2 4 0
56 -55 -2 -4 0
-56 -3 7 0
-57 56 0
-57 -3 7 0
-57 3 -7 0
57 -56 3 7 0
57 -56 -3 -7 0
-57 -4 2 0
-58 57 0
-58 -4 2 0
-58 4 -2 0
58 -57 4 2 0
58 -57 -4 -2 0
-58 -5 5 0
-59 58 0
-59 -5 5 0
-59 5 -5 0
59 -58 5 5 0
59 -58 -5 -5 0
-59 -6 8 0
-60 59 0
-60 -6 8 0
-60 6 -8 0
60 -59 6 8 0
60 -59 -6 -8 0
-60 -7 3 0
-61 60 0
-61 -7 3 0
-61 7 -3 0
61 -60 7 3 0
61 -60 -7 -3 0
-61 -8 6 0
-62 61 0
-62 -8 6 0
-62 8 -6 0
62 -61 8 6 0
62 -61 -8 -6 0
-62 -9 9 0
-63 62 0
-63 -9 9 0
-63 9 -9 0
63 -62 9 9 0
63 -62 -9 -9 0
-11 0
-16 10 0
-21 10 15 0
-26 10 15 20 0
-31 10 15 20 25 0
-36 10 15 20 25 30 0
-41 10 15 20 25 30 35 0
-46 10 15 20 25 30 35 40 0
-51 10 15 20 25 30 35 40 45 0
-12 0
-17 11 0
-22 11 16 0
-27 11 16 21 0
-32 11 16 21 26 0
-37 11 16 21 26 31 0
-42 11 16 21 26 31 36 0
-47 11 16 21 26 31 36 41 0
-52 11 16 21 26 31 36 41 46 0
-13 0
-18 12 0
-23 12 17 0
-28 12 17 22 0
-33 12 17 22 27 0
-38 12 17 22 27 32 0
-43 12 17 22 27 32 37 0
-48 12 17 22 27 32 37 42 0
-53 12 17 22 27 32 37 42 47 0
-14 0
-19 13 0
-24 13 18 0
-29 13 18 23 0
-34 13 18 23 28 0
-39 13 18 23 28 33 0
-44 13 18 23 28 33 38 0
-49 13 18 23 28 33 38 43 0
-54 13 18 23 28 33 38 43 48 0
10 15 20 25 30 35 40 45 50 0
11 16 21 26 31 36 41 46 51 0
12 17 22 27 32 37 42 47 52 0
13 18 23 28 33 38 43 48 53 0
14 19 24 29 34 39 44 49 54 0
-64 10 11 0
-64 25 26 0
-64 -10 -25 0
-64 -11 -26 0
-65 10 11 0
-65 15 16 0
-65 -10 -15 0
-65 -11 -16 0
-66 15 16 0
-66 30 31 0
-66 -15 -30 0
-66 -16 -31 0
-67 15 16 0
-67 20 21 0
-67 -15 -20 0
-67 -16 -21 0
-68 15 16 0
-68 25 26 0
-68 -15 -25 0
-68 -16 -26 0
-69 20 21 0
-69 35 36 0
-69 -20 -35 0
-69 -21 -36 0
-70 20 21 0
-70 30 31 0
-70 -20 -30 0
-70 -21 -31 0
-71 25 26 0
-71 40 41 0
-71 -25 -40 0
-71 -26 -41 0
-72 25 26 0
-72 30 31 0
-72 -25 -30 0
-72 -26 -31 0
-73 30 31 0
-73 45 46 0
-73 -30 -45 0
-73 -31 -46 0
-74 30 31 0
-74 35 36 0
-74 -30 -35 0
-74 -31 -36 0
-75 30 31 0
-75 40 41 0
-75 -30 -40 0
-75 -31 -41 0
-76 35 36 0
-76 50 51 0
-76 -35 -50 0
-76 -36 -51 0
-77 35 36 0
-77 45 46 0
-77 -35 -45 0
-77 -36 -46 0
-78 40 41 0
-78 45 46 0
-78 -40 -45 0
-78 -41 -46 0
-79 45 46 0
-79 50 51 0
-79 -45 -50 0
-79 -46 -51 0
64 65 66 67 68 69 70 71 72 73 74 75 76 77 78 79 0
-80 10 12 0
-80 25 27 0
-80 -10 -25 0
-80 -12 -27 0
-81 10 12 0
-81 15 17 0
-81 -10 -15 0
-81 -12 -17 0
-82 15 17 0
-82 30 32 0
-82 -15 -30 0
-82 -17 -32 0
-83 15 17 0
-83 20 22 0
-83 -15 -20 0
-83 -17 -22 0
-84 15 17 0
-84 25 27 0
-84 -15 -25 0
-84 -17 -27 0
-85 20 22 0
-85 35 37 0
-85 -20 -35 0
-85 -22 -37 0
-86 20 22 0
-86 30 32 0
-86 -20 -30 0
-86 -22 -32 0
-87 25 27 0
-87 40 42 0
-87 -25 -40 0
-87 -27 -42 0
-88 25 27 0
-88 30 32 0
-88 -25 -30 0
-88 -27 -32 0
-89 30 32 0
-89 45 47 0
-89 -30 -45 0
-89 -32 -47 0
-90 30 32 0
-90 35 37 0
-90 -30 -35 0
-90 -32 -37 0
-91 30 32 0
-91 40 42 0
-91 -30 -40 0
-91 -32 -42 0
-92 35 37 0
-92 50 52 0
-92 -35 -50 0
-92 -37 -52 0
-93 35 37 0
-93 45 47 0
-93 -35 -45 0
-93 -37 -47 0
-94 40 42 0
-94 45 47 0
-94 -40 -45 0
-94 -42 -47 0
-95 45 47 0
-95 50 52 0
-95 -45 -50 0
-95 -47 -52 0
80 81 82 83 84 85 86 87 88 89 90 91 92 93 94 95 0
-96 10 13 0
-96 25 28 0
-96 -10 -25 0
-96 -13 -28 0
-97 10 13 0
-97 15 18 0
-97 -10 -15 0
-97 -13 -18 0
-98 15 18 0
-98 30 33 0
-98 -15 -30 0
-98 -18 -33 0
-99 15 18 0
-99 20 23 0
-99 -15 -20 0
-99 -18 -23 0
-100 15 18 0
-100 25 28 0
-100 -15 -25 0
-100 -18 -28 0
-101 20 23 0
-101 35 38 0
-101 -20 -35 0
-101 -23 -38 0
-102 20 23 0
-102 30 33 0
-102 -20 -30 0
-102 -23 -33 0
-103 25 28 0
-103 40 43 0
-103 -25 -40 0
-103 -28 -43 0
-104 25 28 0
-104 30 33 0
-104 -25 -30 0
-104 -28 -33 0
-105 30 33 0
-105 45 48 0
-105 -30 -45 0
-105 -33 -48 0
-106 30 33 0
-106 35 38 0
-106 -30 -35 0
-106 -33 -38 0
-107 30 33 0
-107 40 43 0
-107 -30 -40 0
-107 -33 -43 0
-108 35 38 0
-108 50 53 0
-108 -35 -50 0
-108 -38 -53 0
-109 35 38 0
-109 45 48 0
-109 -35 -45 0
-109 -38 -48 0
-110 40 43 0
-110 45 48 0
-110 -40 -45 0
-110 -43 -48 0
-111 45 48 0
-111 50 53 0
-111 -45 -50 0
-111 -48 -53 0
96 97 98 99 100 101 102 103 104 105 106 107 108 109 110 111 0
-112 10 14 0
-112 25 29 0
-112 -10 -25 0
-112 -14 -29 0
-113 10 14 0
-113 15 19 0
-113 -10 -15 0
-113 -14 -19 0
-114 15 19 0
-114 30 34 0
-114 -15 -30 0
-114 -19 -34 0
-115 15 19 0
-115 20 24 0
-115 -15 -20 0
-115 -19 -24 0
-116 15 19 0
-116 25 29 0
-116 -15 -25 0
-116 -19 -29 0
-117 20 24 0
-117 35 39 0
-117 -20 -35 0
-117 -24 -39 0
-118 20 24 0
-118 30 34 0
-118 -20 -30 0
-118 -24 -34 0
-119 25 29 0
-119 40 44 0
-119 -25 -40 0
-119 -29 -44 0
-120 25 29 0
-120 30 34 0
-120 -25 -30 0
-120 -29 -34 0
-121 30 34 0
-121 45 49 0
-121 -30 -45 0
-121 -34 -49 0
-122 30 34 0
-122 35 39 0
-122 -30 -35 0
-122 -34 -39 0
-123 30 34 0
-123 40 44 0
-123 -30 -40 0
-123 -34 -44 0
-124 35 39 0
-124 50 54 0
-124 -35 -50 0
-124 -39 -54 0
-125 35 39 0
-125 45 49 0
-125 -35 -45 0
-125 -39 -49 0
-126 40 44 0
-126 45 49 0
-126 -40 -45 0
-126 -44 -49 0
-127 45 49 0
-127 50 54 0
-127 -45 -50 0
-127 -49 -54 0
112 113 114 115 116 117 118 119 120 121 122 123 124 125 126 127 0
-128 11 12 0
-128 26 27 0
-128 -11 -26 0
-128 -12 -27 0
-129 11 12 0
-129 16 17 0
-129 -11 -16 0
-129 -12 -17 0
-130 16 17 0
-130 31 32 0
-130 -16 -31 0
-130 -17 -32 0
-131 16 17 0
-131 21 22 0
-131 -16 -21 0
-131 -17 -22 0
-132 16 17 0
-132 26 27 0
-132 -16 -26 0
-132 -17 -27 0
-133 21 22 0
-133 36 37 0
-133 -21 -36 0
-133 -22 -37 0
-134 21 22 0
-134 31 32 0
-134 -21 -31 0
-134 -22 -32 0
-135 26 27 0
-135 41 42 0
-135 -26 -41 0
-135 -27 -42 0
-136 26 27 0
-136 31 32 0
-136 -26 -31 0
-136 -27 -32 0
-137 31 32 0
-137 46 47 0
-137 -31 -46 0
-137 -32 -47 0
-138 31 32 0
-138 36 37 0
-138 -31 -36 0
-138 -32 -37 0
-139 31 32 0
-139 41 42 0
-139 -31 -41 0
-139 -32 -42 0
-140 36 37 0
-140 51 52 0
-140 -36 -51 0
-140 -37 -52 0
-141 36 37 0
-141 46 47 0
-141 -36 -46 0
-141 -37 -47 0
-142 41 42 0
-142 46 47 0
-142 -41 -46 0
-142 -42 -47 0
-143 46 47 0
-143 51 52 0
-143 -46 -51 0
-143 -47 -52 0
128 129 130 131 132 133 134 135 136 137 138 139 140 141 142 143 0
-144 11 13 0
-144 26 28 0
-144 -11 -26 0
-144 -13 -28 0
-145 11 13 0
-145 16 18 0
-145 -11 -16 0
-145 -13 -18 0
-146 16 18 0
-146 31 33 0
-146 -16 -31 0
-146 -18 -33 0
-147 16 18 0
-147 21 23 0
-147 -16 -21 0
-147 -18 -23 0
-148 16 18 0
-148 26 28 0
-148 -16 -26 0
-148 -18 -28 0
-149 21 23 0
-149 36 38 0
-149 -21 -36 0
-149 -23 -38 0
-150 21 23 0
-150 31 33 0
-150 -21 -31 0
-150 -23 -33 0
-151 26 28 0
-151 41 43 0
-151 -26 -41 0
-151 -28 -43 0
-152 26 28 0
-152 31 33 0
-152 -26 -31 0
-152 -28 -33 0
-153 31 33 0
-153 46 48 0
-153 -31 -46 0
-153 -33 -48 0
-154 31 33 0
-154 36 38 0
-154 -31 -36 0
-154 -33 -38 0
-155 31 33 0
-155 41 43 0
-155 -31 -41 0
-155 -33 -43 0
-156 36 38 0
-156 51 53 0
-156 -36 -51 0
-156 -38 -53 0
-157 36 38 0
-157 46 48 0
-157 -36 -46 0
-157 -38 -48 0
-158 41 43 0
-158 46 48 0
-158 -41 -46 0
-158 -43 -48 0
-159 46 48 0
-159 51 53 0
-159 -46 -51 0
-159 -48 -53 0
144 145 146 147 148 149 150 151 152 153 154 155 156 157 158 159 0
-160 11 14 0
-160 26 29 0
-160 -11 -26 0
-160 -14 -29 0
-161 11 14 0
-161 16 19 0
-161 -11 -16 0
-161 -14 -19 0
-162 16 19 0
-162 31 34 0
-162 -16 -31 0
-162 -19 -34 0
-163 16 19 0
-163 21 24 0
-163 -16 -21 0
-163 -19 -24 0
-164 16 19 0
-164 26 29 0
-164 -16 -26 0
-164 -19 -29 0
-165 21 24 0
-165 36 39 0
-165 -21 -36 0
-165 -24 -39 0
-166 21 24 0
-166 31 34 0
-166 -21 -31 0
-166 -24 -34 0
-167 26 29 0
-167 41 44 0
-167 -26 -41 0
-167 -29 -44 0
-168 26 29 0
-168 31 34 0
-168 -26 -31 0
-168 -29 -34 0
-169 31 34 0
-169 46 49 0
-169 -31 -46 0
-169 -34 -49 0
-170 31 34 0
-170 36 39 0
-170 -31 -36 0
-170 -34 -39 0
-171 31 34 0
-171 41 44 0
-171 -31 -41 0
-171 -34 -44 0
-172 36 39 0
-172 51 54 0
-172 -36 -51 0
-172 -39 -54 0
-173 36 39 0
-173 46 49 0
-173 -36 -46 0
-173 -39 -49 0
-174 41 44 0
-174 46 49 0
-174 -41 -46 0
-174 -44 -49 0
-175 46 49 0
-175 51 54 0
-175 -46 -51 0
-175 -49 -54 0
160 161 162 163 164 165 166 167 168 169 170 171 172 173 174 175 0
-176 12 13 0
-176 27 28 0
-176 -12 -27 0
-176 -13 -28 0
-177 12 13 0
-177 17 18 0
-177 -12 -17 0
-177 -13 -18 0
-178 17 18 0
-178 32 33 0
-178 -17 -32 0
-178 -18 -33 0
-179 17 18 0
-179 22 23 0
-179 -17 -22 0
-179 -18 -23 0
-180 17 18 0
-180 27 28 0
-180 -17 -27 0
-180 -18 -28 0
-181 22 23 0
-181 37 38 0
-181 -22 -37 0
-181 -23 -38 0
-182 22 23 0
-182 32 33 0
-182 -22 -32 0
-182 -23 -33 0
-183 27 28 0
-183 42 43 0
-183 -27 -42 0
-183 -28 -43 0
-184 27 28 0
-184 32 33 0
-184 -27 -32 0
-184 -28 -33 0
-185 32 33 0
-185 47 48 0
-185 -32 -47 0
-185 -33 -48 0
-186 32 33 0
-186 37 38 0
-186 -32 -37 0
-186 -33 -38 0
-187 32 33 0
-187 42 43 0
-187 -32 -42 0
-187 -33 -43 0
-188 37 38 0
-188 52 53 0
-188 -37 -52 0
-188 -38 -53 0
-189 37 38 0
-189 47 48 0
-189 -37 -47 0
-189 -38 -48 0
-190 42 43 0
-190 47 48 0
-190 -42 -47 0
-190 -43 -48 0
-191 47 48 0
-191 52 53 0
-191 -47 -52 0
-191 -48 -53 0
176 177 178 179 180 181 182 183 184 185 186 187 188 189 190 191 0
-192 12 14 0
-192 27 29 0
-192 -12 -27 0
-192 -14 -29 0
-193 12 14 0
-193 17 19 0
-193 -12 -17 0
-193 -14 -19 0
-194 17 19 0
-194 32 34 0
-194 -17 -32 0
-194 -19 -34 0
-195 17 19 0
-195 22 24 0
-195 -17 -22 0
-195 -19 -24 0
-196 17 19 0
-196 27 29 0
-196 -17 -27 0
-196 -19 -29 0
-197 22 24 0
-197 37 39 0
-197 -22 -37 0
-197 -24 -39 0
-198 22 24 0
-198 32 34 0
-198 -22 -32 0
-198 -24 -34 0
-199 27 29 0
-199 42 44 0
-199 -27 -42 0
-199 -29 -44 0
-200 27 29 0
-200 32 34 0
-200 -27 -32 0
-200 -29 -34 0
-201 32 34 0
-201 47 49 0
-201 -32 -47 0
-201 -34 -49 0
-202 32 34 0
-202 37 39 0
-202 -32 -37 0
-202 -34 -39 0
-203 32 34 0
-203 42 44 0
-203 -32 -42 0
-203 -34 -44 0
-204 37 39 0
-204 52 54 0
-204 -37 -52 0
-204 -39 -54 0
-205 37 39 0
-205 47 49 0
-205 -37 -47 0
-205 -39 -49 0
-206 42 44 0
-206 47 49 0
-206 -42 -47 0
-206 -44 -49 0
-207 47 49 0
-207 52 54 0
-207 -47 -52 0
-207 -49 -54 0
192 193 194 195 196 197 198 199 200 201 202 203 204 205 206 207 0
-208 13 14 0
-208 28 29 0
-208 -13 -28 0
-208 -14 -29 0
-209 13 14 0
-209 18 19 0
-209 -13 -18 0
-209 -14 -19 0
-210 18 19 0
-210 33 34 0
-210 -18 -33 0
-210 -19 -34 0
-211 18 19 0
-211 23 24 0
-211 -18 -23 0
-211 -19 -24 0
-212 18 19 0
-212 28 29 0
-212 -18 -28 0
-212 -19 -29 0
-213 23 24 0
-213 38 39 0
-213 -23 -38 0
-213 -24 -39 0
-214 23 24 0
-214 33 34 0
-214 -23 -33 0
-214 -24 -34 0
-215 28 29 0
-215 43 44 0
-215 -28 -43 0
-215 -29 -44 0
-216 28 29 0
-216 33 34 0
-216 -28 -33 0
-216 -29 -34 0
-217 33 34 0
-217 48 49 0
-217 -33 -48 0
-217 -34 -49 0
-218 33 34 0
-218 38 39 0
-218 -33 -38 0
-218 -34 -39 0
-219 33 34 0
-219 43 44 0
-219 -33 -43 0
-219 -34 -44 0
-220 38 39 0
-220 53 54 0
-220 -38 -53 0
-220 -39 -54 0
-221 38 39 0
-221 48 49 0
-221 -38 -48 0
-221 -39 -49 0
-222 43 44 0
-222 48 49 0
-222 -43 -48 0
-222 -44 -49 0
-223 48 49 0
-223 53 54 0
-223 -48 -53 0
-223 -49 -54 0
208 209 210 211 212 213 214 215 216 217 218 219 220 221 222 223 0
-224 1 0
224 -1 0
-225 2 0
-225 -1 0
225 -2 1 0
-226 3 0
-226 -1 0
-226 -2 0
226 -3 1 2 0
-227 4 0
-227 -1 0
-227 -2 0
-227 -3 0
227 -4 1 2 3 0
-228 5 0
-228 -1 0
-228 -2 0
-228 -3 0
-228 -4 0
228 -5 1 2 3 4 0
-229 6 0
-229 -1 0
-229 -2 0
-229 -3 0
-229 -4 0
-229 -5 0
229 -6 1 2 3 4 5 0
-230 7 0
-230 -1 0
-230 -2 0
-230 -3 0
-230 -4 0
-230 -5 0
-230 -6 0
230 -7 1 2 3 4 5 6 0
-231 8 0
-231 -1 0
-231 -2 0
-231 -3 0
-231 -4 0
-231 -5 0
-231 -6 0
-231 -7 0
231 -8 1 2 3 4 5 6 7 0
-232 9 0
-232 -1 0
-232 -2 0
-232 -3 0
-232 -4 0
-232 -5 0
-232 -6 0
-232 -7 0
-232 -8 0
232 -9 1 2 3 4 5 6 7 8 0
-224 10 0
-225 15 0
-226 20 0
-227 25 0
-228 30 0
-229 35 0
-230 40 0
-231 45 0
-232 50 0
-224 233 0
224 -233 0
-225 236 0
225 -236 0
-226 239 0
226 -239 0
-227 242 0
227 -242 0
-228 245 0
228 -245 0
-229 248 0
229 -248 0
-230 251 0
230 -251 0
-231 254 0
231 -254 0
-232 257 0
232 -257 0
-233 234 0
-1 -242 234 0
-1 -236 234 0
-234 233 1 0
-234 233 242 236 0
-236 237 0
-2 -245 237 0
-2 -239 237 0
-2 -233 237 0
-2 -242 237 0
-237 236 2 0
-237 236 245 239 233 242 0
-239 240 0
-3 -248 240 0
-3 -236 240 0
-3 -245 240 0
-240 239 3 0
-240 239 248 236 245 0
-242 243 0
-4 -251 243 0
-4 -233 243 0
-4 -245 243 0
-4 -236 243 0
-243 242 4 0
-243 242 251 233 245 236 0
-245 246 0
-5 -254 246 0
-5 -236 246 0
-5 -248 246 0
-5 -242 246 0
-5 -251 246 0
-5 -239 246 0
-246 245 5 0
-246 245 254 236 248 242 251 239 0
-248 249 0
-6 -257 249 0
-6 -239 249 0
-6 -245 249 0
-6 -254 249 0
-249 248 6 0
-249 248 257 239 245 254 0
-251 252 0
-7 -242 252 0
-7 -254 252 0
-7 -245 252 0
-252 251 7 0
-252 251 242 254 245 0
-254 255 0
-8 -245 255 0
-8 -257 255 0
-8 -251 255 0
-8 -248 255 0
-255 254 8 0
-255 254 245 257 251 248 0
-257 258 0
-9 -248 258 0
-9 -254 258 0
-258 257 9 0
-258 257 248 254 0
-234 235 0
-1 -243 235 0
-1 -237 235 0
-235 234 1 0
-235 234 243 237 0
-237 238 0
-2 -246 238 0
-2 -240 238 0
-2 -234 238 0
-2 -243 238 0
-238 237 2 0
-238 237 246 240 234 243 0
-240 241 0
-3 -249 241 0
-3 -237 241 0
-3 -246 241 0
-241 240 3 0
-241 240 249 237 246 0
-243 244 0
-4 -252 244 0
-4 -234 244 0
-4 -246 244 0
-4 -237 244 0
-244 243 4 0
-244 243 252 234 246 237 0
-246 247 0
-5 -255 247 0
-5 -237 247 0
-5 -249 247 0
-5 -243 247 0
-5 -252 247 0
-5 -240 247 0
-247 246 5 0
-247 246 255 237 249 243 252 240 0
-249 250 0
-6 -258 250 0
-6 -240 250 0
-6 -246 250 0
-6 -255 250 0
-250 249 6 0
-250 249 258 240 246 255 0
-252 253 0
-7 -243 253 0
-7 -255 253 0
-7 -246 253 0
-253 252 7 0
-253 252 243 255 246 0
-255 256 0
-8 -246 256 0
-8 -258 256 0
-8 -252 256 0
-8 -249 256 0
-256 255 8 0
-256 255 246 258 252 249 0
-258 259 0
-9 -249 259 0
-9 -255 259 0
-259 258 9 0
-259 258 249 255 0
-1 235 0
-2 238 0
-3 241 0
-4 244 0
-5 247 0
-6 250 0
-7 253 0
-8 256 0
-9 259 0
1 260 0
-260 261 0
2 -260 262 0
-262 263 0
3 -262 264 0
-264 265 0
4 -264 0
2 261 0
-261 266 0
3 -261 263 0
-263 267 0
4 -263 265 0
-265 268 0
5 -265 0
3 266 0
-266 269 0
4 -266 267 0
-267 270 0
5 -267 268 0
-268 271 0
6 -268 0
4 269 0
-269 272 0
5 -269 270 0
-270 273 0
6 -270 271 0
-271 274 0
7 -271 0
5 272 0
-272 275 0
6 -272 273 0
-273 276 0
7 -273 274 0
-274 277 0
8 -274 0
6 275 0
7 -275 276 0
8 -276 277 0
9 -277 0
-1 278 0
-278 279 0
-2 -278 280 0
-280 281 0
-3 -280 282 0
-282 283 0
-4 -282 284 0
-284 285 0
-5 -284 286 0
-286 287 0
-6 -286 288 0
-288 289 0
-7 -288 0
-2 279 0
-279 290 0
-3 -279 281 0
-281 291 0
-4 -281 283 0
-283 292 0
-5 -283 285 0
-285 293 0
-6 -285 287 0
-287 294 0
-7 -287 289 0
-289 295 0
-8 -289 0
-3 290 0
-4 -290 291 0
-5 -291 292 0
-6 -292 293 0
-7 -293 294 0
-8 -294 295 0
-9 -295 0
